g3 0 1 0	# problem d6n6R0R6d01d05
 6 5 1 0 0	# vars, constraints, objectives, ranges, eqns
 4 1	# nonlinear constraints, objectives
 0 0	# network constraints: nonlinear, linear
 6 6 6	# nonlinear vars in constraints, objectives, both
 0 0 0 1	# linear network variables; functions; arith, flags
 0 0 0 0 0	# discrete variables: binary, integer, nonlinear (b,c,o)
 30 6	# nonzeros in Jacobian, gradients
 0 0	# max name lengths: constraints, variables
 0 0 0 0 0	# common exprs: b,c,o,c1,o1
b
0 0.94 2.31
0 0.42 2.63
0 0.35 2.72
0 0.94 2.9
0 0.87 2.57
0 0.86 2.68
r
2 24.567
2 111.61
2 490.743
2 1689.29
2 17.748
C0
o2
o2
n1.63
v4
v5
C1
o54
7
o2
o2
n2.2
v4
v5
o2
o2
o2
n4.68
v0
v1
v4
o16
o2
o2
o2
n5.34
v0
v3
v5
o2
o2
o2
n2.7
v0
v4
v4
o2
o2
o2
n2.78
v1
v2
v3
o2
o2
o2
n5.59
v1
v2
v4
o2
o2
o2
n6.18
v2
v2
v5
C2
o54
16
o2
o2
n9.06
v4
v5
o2
o2
o2
n7.77
v0
v1
v4
o2
o2
o2
n5.05
v0
v3
v5
o2
o2
o2
n4.76
v0
v4
v4
o2
o2
o2
n1.26
v1
v2
v3
o2
o2
o2
n2.24
v1
v2
v4
o2
o2
o2
n4.68
v2
v2
v5
o2
o2
o2
o2
n5.3
v0
v0
v3
v4
o2
o2
o2
o2
n1.2
v0
v0
v5
v5
o2
o2
o2
o2
n8.21
v0
v1
v1
v1
o2
o2
o2
o2
n9.43
v0
v2
v2
v3
o2
o2
o2
o2
n0.82
v1
v2
v5
v5
o2
o2
o2
o2
n1.06
v2
v2
v3
v5
o2
o2
o2
o2
n4.99
v3
v3
v5
v5
o2
o2
o2
o2
n0.83
v3
v4
v4
v5
o2
o2
o2
o2
n6.17
v3
v5
v5
v5
C3
o54
39
o2
o2
n4.65
v4
v5
o2
o2
o2
n2.24
v0
v1
v4
o2
o2
o2
n9.39
v0
v3
v5
o2
o2
o2
n8.98
v0
v4
v4
o16
o2
o2
o2
n1.07
v1
v2
v3
o2
o2
o2
n3.64
v1
v2
v4
o2
o2
o2
n9.22
v2
v2
v5
o2
o2
o2
o2
n9.65
v0
v0
v3
v4
o2
o2
o2
o2
n4.13
v0
v0
v5
v5
o2
o2
o2
o2
n3.77
v0
v1
v1
v1
o2
o2
o2
o2
n3.59
v0
v2
v2
v3
o16
o2
o2
o2
o2
n9.05
v1
v2
v5
v5
o2
o2
o2
o2
n2.17
v2
v2
v3
v5
o2
o2
o2
o2
n1.18
v3
v3
v5
v5
o2
o2
o2
o2
n1.01
v3
v4
v4
v5
o2
o2
o2
o2
n8.58
v3
v5
v5
v5
o2
o2
o2
o2
o2
n0.69
v0
v0
v0
v2
v2
o2
o2
o2
o2
o2
n1.39
v0
v0
v0
v3
v5
o2
o2
o2
o2
o2
n5.29
v0
v0
v1
v1
v3
o2
o2
o2
o2
o2
n9.92
v0
v0
v1
v2
v4
o2
o2
o2
o2
o2
n0.2
v0
v0
v4
v4
v4
o2
o2
o2
o2
o2
n7.57
v0
v0
v4
v4
v5
o2
o2
o2
o2
o2
n1.56
v0
v2
v2
v4
v4
o16
o2
o2
o2
o2
o2
n8.83
v0
v2
v3
v4
v5
o2
o2
o2
o2
o2
n0.33
v1
v1
v1
v2
v5
o2
o2
o2
o2
o2
n7.43
v1
v1
v1
v4
v5
o2
o2
o2
o2
o2
n8.44
v1
v1
v2
v3
v4
o2
o2
o2
o2
o2
n5.15
v1
v1
v3
v3
v4
o2
o2
o2
o2
o2
n0.19
v1
v2
v2
v2
v3
o2
o2
o2
o2
o2
n6.42
v1
v2
v2
v2
v4
o2
o2
o2
o2
o2
n6.52
v1
v2
v3
v4
v5
o2
o2
o2
o2
o2
n9.15
v1
v3
v3
v4
v4
o2
o2
o2
o2
o2
n4.96
v1
v3
v4
v5
v5
o2
o2
o2
o2
o2
n7.11
v1
v5
v5
v5
v5
o2
o2
o2
o2
o2
n3.14
v2
v2
v2
v5
v5
o2
o2
o2
o2
o2
n4.01
v2
v2
v4
v4
v5
o2
o2
o2
o2
o2
n8.72
v2
v2
v5
v5
v5
o2
o2
o2
o2
o2
n4.87
v2
v4
v4
v4
v4
o2
o2
o2
o2
o2
n3.32
v3
v3
v4
v4
v5
C4
n0
O0 0
o54
92
o2
o2
n6.57
v4
v5
o16
o2
o2
o2
n2.05
v0
v1
v4
o2
o2
o2
n6.13
v0
v3
v5
o2
o2
o2
n1.94
v0
v4
v4
o2
o2
o2
n7.83
v1
v2
v3
o2
o2
o2
n4.81
v1
v2
v4
o2
o2
o2
n6.25
v2
v2
v5
o2
o2
o2
o2
n4.42
v0
v0
v3
v4
o2
o2
o2
o2
n8.38
v0
v0
v5
v5
o2
o2
o2
o2
n0.23
v0
v1
v1
v1
o2
o2
o2
o2
n7.29
v0
v2
v2
v3
o2
o2
o2
o2
n2.72
v1
v2
v5
v5
o2
o2
o2
o2
n3.07
v2
v2
v3
v5
o16
o2
o2
o2
o2
n4.34
v3
v3
v5
v5
o2
o2
o2
o2
n3.84
v3
v4
v4
v5
o2
o2
o2
o2
n1.39
v3
v5
v5
v5
o2
o2
o2
o2
o2
n4.7
v0
v0
v0
v2
v2
o2
o2
o2
o2
o2
n6.99
v0
v0
v0
v3
v5
o2
o2
o2
o2
o2
n7.44
v0
v0
v1
v1
v3
o2
o2
o2
o2
o2
n0.6
v0
v0
v1
v2
v4
o2
o2
o2
o2
o2
n8.7
v0
v0
v4
v4
v4
o2
o2
o2
o2
o2
n4.41
v0
v0
v4
v4
v5
o2
o2
o2
o2
o2
n9.54
v0
v2
v2
v4
v4
o2
o2
o2
o2
o2
n1.73
v0
v2
v3
v4
v5
o2
o2
o2
o2
o2
n4.14
v1
v1
v1
v2
v5
o2
o2
o2
o2
o2
n7.97
v1
v1
v1
v4
v5
o2
o2
o2
o2
o2
n0.52
v1
v1
v2
v3
v4
o2
o2
o2
o2
o2
n9.29
v1
v1
v3
v3
v4
o2
o2
o2
o2
o2
n0.95
v1
v2
v2
v2
v3
o2
o2
o2
o2
o2
n9.29
v1
v2
v2
v2
v4
o2
o2
o2
o2
o2
n5.09
v1
v2
v3
v4
v5
o16
o2
o2
o2
o2
o2
n9.14
v1
v3
v3
v4
v4
o2
o2
o2
o2
o2
n3.39
v1
v3
v4
v5
v5
o2
o2
o2
o2
o2
n1.42
v1
v5
v5
v5
v5
o2
o2
o2
o2
o2
n3.86
v2
v2
v2
v5
v5
o2
o2
o2
o2
o2
n2.86
v2
v2
v4
v4
v5
o2
o2
o2
o2
o2
n9.77
v2
v2
v5
v5
v5
o2
o2
o2
o2
o2
n6.5
v2
v4
v4
v4
v4
o2
o2
o2
o2
o2
n1.22
v3
v3
v4
v4
v5
o2
o2
o2
o2
o2
o2
n8.41
v0
v0
v0
v0
v1
v4
o2
o2
o2
o2
o2
o2
n8.44
v0
v0
v0
v0
v2
v5
o2
o2
o2
o2
o2
o2
n9.43
v0
v0
v0
v1
v1
v2
o2
o2
o2
o2
o2
o2
n9.43
v0
v0
v0
v2
v2
v5
o2
o2
o2
o2
o2
o2
n7.07
v0
v0
v0
v3
v3
v5
o16
o2
o2
o2
o2
o2
o2
n0.01
v0
v0
v1
v1
v2
v3
o2
o2
o2
o2
o2
o2
n8.02
v0
v0
v1
v1
v2
v4
o2
o2
o2
o2
o2
o2
n8.94
v0
v0
v1
v2
v3
v4
o2
o2
o2
o2
o2
o2
n6.58
v0
v0
v1
v3
v4
v4
o2
o2
o2
o2
o2
o2
n5.85
v0
v0
v1
v4
v4
v5
o2
o2
o2
o2
o2
o2
n9.19
v0
v0
v1
v4
v5
v5
o2
o2
o2
o2
o2
o2
n5.05
v0
v0
v2
v2
v4
v4
o2
o2
o2
o2
o2
o2
n0.57
v0
v0
v2
v2
v4
v5
o2
o2
o2
o2
o2
o2
n2.76
v0
v0
v2
v3
v3
v4
o2
o2
o2
o2
o2
o2
n1.57
v0
v0
v2
v3
v4
v5
o2
o2
o2
o2
o2
o2
n0.73
v0
v0
v3
v3
v3
v3
o2
o2
o2
o2
o2
o2
n4.23
v0
v1
v1
v1
v2
v2
o2
o2
o2
o2
o2
o2
n4
v0
v1
v1
v1
v4
v4
o2
o2
o2
o2
o2
o2
n4.24
v0
v1
v1
v2
v2
v5
o2
o2
o2
o2
o2
o2
n5.7
v0
v1
v1
v3
v3
v4
o2
o2
o2
o2
o2
o2
n6.19
v0
v1
v1
v3
v3
v5
o2
o2
o2
o2
o2
o2
n6.51
v0
v1
v1
v4
v4
v5
o2
o2
o2
o2
o2
o2
n1.82
v0
v1
v2
v2
v2
v3
o2
o2
o2
o2
o2
o2
n1.84
v0
v1
v2
v3
v5
v5
o2
o2
o2
o2
o2
o2
n6.73
v0
v1
v3
v3
v3
v5
o16
o2
o2
o2
o2
o2
o2
n4.35
v0
v1
v3
v4
v4
v4
o2
o2
o2
o2
o2
o2
n5.71
v0
v1
v3
v4
v5
v5
o2
o2
o2
o2
o2
o2
n4.72
v0
v2
v2
v3
v4
v5
o2
o2
o2
o2
o2
o2
n2.15
v0
v3
v3
v3
v3
v4
o16
o2
o2
o2
o2
o2
o2
n8.46
v0
v3
v4
v4
v4
v5
o16
o2
o2
o2
o2
o2
o2
n1.68
v1
v1
v1
v1
v1
v3
o2
o2
o2
o2
o2
o2
n1.52
v1
v1
v1
v1
v2
v4
o2
o2
o2
o2
o2
o2
n5.48
v1
v1
v1
v1
v4
v4
o2
o2
o2
o2
o2
o2
n2.64
v1
v1
v1
v3
v4
v4
o2
o2
o2
o2
o2
o2
n3.59
v1
v1
v2
v2
v3
v4
o2
o2
o2
o2
o2
o2
n5.09
v1
v1
v2
v4
v4
v5
o2
o2
o2
o2
o2
o2
n3.35
v1
v1
v5
v5
v5
v5
o16
o2
o2
o2
o2
o2
o2
n5.75
v1
v2
v2
v2
v3
v3
o2
o2
o2
o2
o2
o2
n3.51
v1
v2
v2
v2
v5
v5
o2
o2
o2
o2
o2
o2
n4.29
v1
v2
v2
v5
v5
v5
o2
o2
o2
o2
o2
o2
n9.18
v1
v2
v3
v3
v3
v4
o2
o2
o2
o2
o2
o2
n0.21
v1
v3
v5
v5
v5
v5
o2
o2
o2
o2
o2
o2
n7.96
v1
v4
v5
v5
v5
v5
o16
o2
o2
o2
o2
o2
o2
n0.65
v2
v2
v2
v3
v3
v4
o2
o2
o2
o2
o2
o2
n2.59
v2
v2
v2
v3
v4
v4
o2
o2
o2
o2
o2
o2
n6.72
v2
v2
v2
v4
v4
v5
o2
o2
o2
o2
o2
o2
n0.43
v2
v2
v4
v5
v5
v5
o2
o2
o2
o2
o2
o2
n1.16
v2
v3
v3
v3
v3
v4
o2
o2
o2
o2
o2
o2
n5.05
v2
v3
v4
v4
v5
v5
o2
o2
o2
o2
o2
o2
n5.21
v2
v4
v4
v4
v5
v5
o2
o2
o2
o2
o2
o2
n0.24
v3
v3
v3
v5
v5
v5
o2
o2
o2
o2
o2
o2
n7.39
v3
v4
v4
v4
v5
v5
o2
o2
o2
o2
o2
o2
n1.82
v4
v4
v5
v5
v5
v5
k5
5
10
15
20
25
J0 6
0 -4.68
1 3.43
2 6.43
3 3.02
4 1.23
5 2.37
J1 6
0 8.51
1 -6.49
2 1.43
3 9.06
4 9.75
5 0.23
J2 6
0 7.41
1 3.44
2 0.9
3 -4.28
4 0.3
5 8.56
J3 6
0 -3.69
1 0.66
2 2.09
3 3.61
4 1.15
5 8.39
J4 6
0 2.12
1 7.51
2 0.88
3 0.1
4 -3.84
5 4.47
G0 6
0 2.14
1 3.77
2 9.18
3 3.48
4 2.8
5 6.86
